NAME: A-n32-f6
COMMENT : -
TYPE : GVRP
DIMENSION : 37
EDGE_WEIGHT_TYPE : EUC_2D
CAPACITY : 100
AUTONOMY : 56
DEPOT_COORD_SECTION
1 42 68
CUSTOMER_COORD_SECTION
2 77 97
3 28 64
4 77 39
5 32 33
6 32 8
7 42 92
8 8 3
9 7 14
10 82 17
11 48 13
12 53 82
13 39 27
14 7 24
15 67 98
16 54 52
17 72 43
18 73 3
19 59 77
20 58 97
21 23 43
22 68 98
23 47 62
24 52 72
25 32 88
26 39 7
27 17 8
28 38 7
29 58 74
30 82 67
31 42 7
32 68 82
33 7 48
AFS_COORD_SECTION
34 17 24
35 49 81
36 73 74
37 32 13
38 72 21
EOF